============================[ Problem Statistics ]=============================|                                                                             ||  Number of variables:          4242                                         ||  Number of clauses:           10277                                         ||  Parse time:                   0.67 s                                       ||                                                                             |============================[ Search Statistics ]==============================| Conflicts |          ORIGINAL         |          LEARNT          | Progress ||           |    Vars  Clauses Literals |    Limit  Clauses Lit/Cl |          |===============================================================================|       100 |    1591     6482  1060263 |     2376      100     53 | 62.501 % ||       250 |    1591     6482  1060263 |     2614      250     75 | 62.495 % |===============================================================================restarts              : 3conflicts             : 363            (360 /sec)decisions             : 629            (0.00 % random) (623 /sec)propagations          : 11981          (11874 /sec)conflict literals     : 29663          (94.61 % deleted)CPU time              : 1.009 sSATISFIABLE